************************************************************************
file with basedata            : mf15_.bas
initial value random generator: 24376
************************************************************************
projects                      :  1
jobs (incl. supersource/sink ):  32
horizon                       :  257
RESOURCES
  - renewable                 :  2   R
  - nonrenewable              :  2   N
  - doubly constrained        :  0   D
************************************************************************
PROJECT INFORMATION:
pronr.  #jobs rel.date duedate tardcost  MPM-Time
    1     30      0       40       19       40
************************************************************************
PRECEDENCE RELATIONS:
jobnr.    #modes  #successors   successors
   1        1          3           2   3   4
   2        3          3          18  21  26
   3        3          3           5   6   7
   4        3          3          12  22  31
   5        3          3           8  14  18
   6        3          3           9  10  15
   7        3          3          11  19  29
   8        3          2          10  16
   9        3          3          13  20  27
  10        3          3          12  17  19
  11        3          1          25
  12        3          2          20  30
  13        3          3          16  19  24
  14        3          1          31
  15        3          2          21  31
  16        3          2          21  26
  17        3          2          23  26
  18        3          2          25  27
  19        3          1          30
  20        3          1          28
  21        3          1          25
  22        3          1          23
  23        3          2          24  27
  24        3          1          28
  25        3          1          30
  26        3          1          28
  27        3          1          29
  28        3          1          29
  29        3          1          32
  30        3          1          32
  31        3          1          32
  32        1          0        
************************************************************************
REQUESTS/DURATIONS:
jobnr. mode duration  R 1  R 2  N 1  N 2
------------------------------------------------------------------------
  1      1     0       0    0    0    0
  2      1     1       6    2    0    9
         2     1       6    2    3    0
         3     6       6    1    0    9
  3      1     3       3    7    0    5
         2     7       2    6    1    0
         3     8       1    5    0    2
  4      1     7       6    3    7    0
         2    10       3    3    7    0
         3    10       2    3    0    4
  5      1     4       7    9    0    8
         2     7       6    9    0    6
         3     8       3    9    5    0
  6      1     2       2    6    6    0
         2     4       2    5    4    0
         3     5       2    3    0    4
  7      1     3       4    8    0    3
         2     5       2    6    8    0
         3    10       2    6    0    3
  8      1     4       5    7    0    9
         2     6       5    6    0    7
         3    10       4    4    0    5
  9      1     1       9    5    0    7
         2     2       4    5    5    0
         3     3       1    4    2    0
 10      1     5       6    6    0   10
         2     7       3    6    6    0
         3     9       2    5    0    6
 11      1     5       7    8    9    0
         2     8       6    6    0    4
         3     9       5    3    2    0
 12      1     6       4    8    0    8
         2     7       3    7    0    5
         3    10       3    6    7    0
 13      1     2       9   10    9    0
         2     2       9   10    0    6
         3    10       8   10    8    0
 14      1     3       6    7    0    7
         2     4       5    5    0    5
         3     8       4    4    0    4
 15      1     3       8    7    0    4
         2     4       7    5    9    0
         3     9       4    3    9    0
 16      1     2       7    7    0    1
         2     4       7    6    9    0
         3     8       6    4    9    0
 17      1     8       6    2    0    7
         2     8      10    2    2    0
         3     8       5    3    5    0
 18      1     2       7    9    3    0
         2     3       6    8    2    0
         3     9       6    7    1    0
 19      1     4       8    6    1    0
         2     4       7    8    1    0
         3     9       4    2    0    4
 20      1     6       6   10    0    5
         2     9       3    9    3    0
         3    10       2    6    3    0
 21      1     4       9    6    5    0
         2     8       8    3    1    0
         3     8       8    5    0    9
 22      1     7       5    7    8    0
         2     8       4    4    8    0
         3     9       3    4    8    0
 23      1     4      10    4    6    0
         2     6       7    4    5    0
         3    10       5    4    4    0
 24      1     7       2    2    0    3
         2     7       2    2    9    0
         3     9       2    1    3    0
 25      1     4       8    8    7    0
         2     7       7    7    7    0
         3    10       7    6    5    0
 26      1     1       2    4    4    0
         2     7       2    4    0    9
         3    10       2    2    0    8
 27      1     8       6    6    0    6
         2     8       7    8    3    0
         3    10       5    2    0    6
 28      1     4      10    6    1    0
         2     6       5    4    0    5
         3     7       4    2    1    0
 29      1     1       7   10    0    5
         2     5       6    9    0    5
         3     6       4    9    6    0
 30      1     3       8    9    0    8
         2     4       7    4    0    5
         3    10       7    1    0    4
 31      1     2       6    5    0    6
         2     6       5    4    9    0
         3     9       4    4    4    0
 32      1     0       0    0    0    0
************************************************************************
RESOURCEAVAILABILITIES:
  R 1  R 2  N 1  N 2
   37   44   86   85
************************************************************************
